
n_res = 6;
rcap = [40, 39, 634, 586, 579, 575];
rtype = [1, 1, 2, 2, 2, 2];
n_tasks = 50;
modes =  [{1, 2, 3, 4, 5, 6}, {7, 8, 9, 10, 11, 12}, {13, 14, 15, 16, 17, 18}, {19, 20, 21, 22, 23, 24}, {25, 26, 27, 28, 29, 30}, {31, 32, 33, 34, 35, 36}, {37, 38, 39, 40, 41, 42}, {43, 44, 45, 46, 47, 48}, {49, 50, 51, 52, 53, 54}, {55, 56, 57, 58, 59, 60}, {61, 62, 63, 64, 65, 66}, {67, 68, 69, 70, 71, 72}, {73, 74, 75, 76, 77, 78}, {79, 80, 81, 82, 83, 84}, {85, 86, 87, 88, 89, 90}, {91, 92, 93, 94, 95, 96}, {97, 98, 99, 100, 101, 102}, {103, 104, 105, 106, 107, 108}, {109, 110, 111, 112, 113, 114}, {115, 116, 117, 118, 119, 120}, {121, 122, 123, 124, 125, 126}, {127, 128, 129, 130, 131, 132}, {133, 134, 135, 136, 137, 138}, {139, 140, 141, 142, 143, 144}, {145, 146, 147, 148, 149, 150}, {151, 152, 153, 154, 155, 156}, {157, 158, 159, 160, 161, 162}, {163, 164, 165, 166, 167, 168}, {169, 170, 171, 172, 173, 174}, {175, 176, 177, 178, 179, 180}, {181, 182, 183, 184, 185, 186}, {187, 188, 189, 190, 191, 192}, {193, 194, 195, 196, 197, 198}, {199, 200, 201, 202, 203, 204}, {205, 206, 207, 208, 209, 210}, {211, 212, 213, 214, 215, 216}, {217, 218, 219, 220, 221, 222}, {223, 224, 225, 226, 227, 228}, {229, 230, 231, 232, 233, 234}, {235, 236, 237, 238, 239, 240}, {241, 242, 243, 244, 245, 246}, {247, 248, 249, 250, 251, 252}, {253, 254, 255, 256, 257, 258}, {259, 260, 261, 262, 263, 264}, {265, 266, 267, 268, 269, 270}, {271, 272, 273, 274, 275, 276}, {277, 278, 279, 280, 281, 282}, {283, 284, 285, 286, 287, 288}, {289, 290, 291, 292, 293, 294}, {295, 296, 297, 298, 299, 300}];
succ =  [{16, 11, 9, 6}, {16, 14, 7, 6}, {24, 22, 16, 13, 11}, {24, 22, 13, 11}, {18, 16, 15, 11}, {24, 22, 17, 12}, {13, 12}, {9}, {24, 20, 19, 13}, {22, 17, 16, 15}, {21, 19, 14}, {29, 21, 20, 19, 18}, {25, 17, 15}, {30, 25, 20, 17}, {30, 29, 23, 21}, {30, 25, 21}, {29, 28, 26, 23}, {34, 30, 28, 25}, {28, 25, 23}, {28, 23}, {34, 28, 27, 26}, {23}, {34, 33, 31, 27}, {33, 31, 29, 27}, {33, 31, 27}, {41, 38, 35, 33}, {36, 35, 32}, {36, 35, 32}, {36, 35, 32}, {41, 33}, {42, 38, 37, 35}, {46, 42, 41, 39, 37}, {50, 46, 42, 39, 37}, {41, 35}, {50, 46, 43, 40}, {45, 42, 41}, {44, 43, 40}, {44, 43, 40}, {49, 44, 43}, {49, 47, 45}, {49, 48, 44}, {47, 43}, {48}, {47}, {48}, {47}, {}, {}, {}, {}];
n_opt = 300;
dur = [6, 7, 8, 14, 16, 19, 3, 13, 15, 16, 17, 18, 4, 9, 12, 13, 15, 18, 1, 2, 7, 8, 11, 12, 2, 3, 4, 6, 11, 12, 2, 4, 7, 12, 14, 17, 1, 8, 11, 14, 15, 16, 3, 8, 11, 15, 16, 19, 11, 12, 15, 17, 19, 20, 3, 5, 8, 16, 17, 20, 3, 4, 5, 6, 7, 8, 3, 8, 9, 10, 15, 18, 10, 11, 17, 18, 19, 20, 3, 4, 5, 14, 15, 17, 1, 5, 9, 10, 19, 20, 1, 6, 10, 11, 12, 13, 2, 3, 10, 13, 18, 19, 2, 9, 11, 12, 13, 19, 3, 5, 8, 9, 12, 20, 11, 12, 13, 15, 16, 19, 5, 6, 7, 10, 14, 15, 12, 13, 14, 15, 16, 17, 9, 15, 17, 18, 19, 20, 3, 4, 5, 6, 14, 19, 3, 4, 9, 11, 17, 20, 3, 4, 6, 7, 14, 16, 2, 5, 7, 10, 13, 19, 8, 13, 14, 15, 16, 19, 3, 7, 8, 9, 14, 19, 1, 9, 10, 18, 19, 20, 3, 6, 8, 9, 11, 18, 5, 6, 10, 11, 12, 18, 4, 5, 8, 13, 17, 19, 3, 4, 8, 13, 14, 16, 2, 4, 5, 6, 16, 18, 3, 5, 8, 9, 17, 20, 6, 7, 9, 10, 14, 17, 4, 11, 13, 17, 19, 20, 1, 3, 4, 15, 16, 19, 1, 4, 9, 11, 12, 20, 9, 10, 11, 13, 16, 17, 1, 8, 9, 12, 13, 20, 2, 6, 11, 13, 14, 19, 5, 7, 8, 9, 10, 11, 2, 7, 8, 9, 16, 19, 1, 5, 9, 13, 16, 20, 3, 5, 7, 9, 18, 19, 2, 8, 11, 12, 13, 19, 2, 8, 9, 10, 12, 20, 6, 10, 15, 16, 18, 19];
rreq = [|20, 16, 14, 12, 9, 6, 12, 11, 10, 9, 8, 7, 18, 18, 17, 17, 16, 16, 8, 7, 7, 6, 6, 6, 16, 16, 16, 16, 15, 15, 15, 15, 14, 14, 13, 13, 20, 15, 13, 12, 9, 9, 17, 17, 16, 16, 15, 15, 16, 15, 15, 15, 15, 15, 12, 10, 8, 6, 6, 4, 18, 17, 13, 10, 9, 5, 14, 12, 11, 9, 6, 5, 13, 12, 12, 11, 11, 11, 13, 11, 7, 5, 3, 2, 15, 14, 14, 14, 13, 13, 15, 12, 12, 6, 5, 2, 16, 13, 11, 7, 5, 4, 18, 17, 16, 16, 14, 14, 16, 16, 16, 16, 16, 16, 11, 10, 10, 8, 7, 7, 14, 12, 10, 9, 7, 6, 20, 16, 16, 14, 12, 10, 19, 17, 13, 11, 10, 9, 10, 9, 8, 6, 5, 4, 18, 14, 12, 8, 7, 3, 8, 7, 7, 7, 7, 7, 16, 14, 14, 13, 10, 8, 15, 13, 10, 8, 4, 1, 18, 16, 14, 11, 8, 4, 14, 12, 11, 10, 7, 7, 10, 8, 7, 7, 4, 3, 17, 15, 12, 10, 10, 8, 19, 18, 18, 17, 16, 15, 5, 5, 5, 5, 5, 5, 12, 9, 9, 7, 5, 4, 16, 15, 14, 12, 12, 10, 12, 11, 11, 11, 11, 11, 17, 16, 16, 15, 13, 13, 8, 6, 5, 4, 3, 3, 12, 11, 9, 8, 7, 7, 11, 11, 10, 9, 8, 8, 13, 13, 13, 12, 12, 12, 11, 9, 9, 6, 6, 3, 19, 15, 15, 13, 11, 8, 4, 4, 4, 4, 4, 4, 9, 8, 7, 6, 5, 4, 13, 13, 9, 8, 6, 2, 16, 13, 8, 8, 4, 3, 17, 16, 14, 13, 13, 12, 18, 18, 17, 15, 15, 13
 |13, 12, 10, 9, 8, 8, 20, 16, 15, 15, 12, 11, 8, 7, 7, 7, 6, 6, 10, 7, 7, 5, 3, 2, 17, 15, 12, 11, 8, 6, 3, 3, 3, 3, 2, 2, 19, 19, 17, 16, 15, 15, 16, 15, 13, 12, 12, 10, 19, 18, 18, 18, 18, 18, 13, 12, 11, 8, 7, 6, 16, 12, 10, 10, 5, 4, 10, 9, 8, 8, 6, 6, 16, 14, 10, 9, 6, 4, 16, 15, 15, 15, 14, 14, 17, 16, 12, 10, 7, 3, 17, 15, 14, 10, 8, 7, 16, 15, 14, 14, 12, 12, 10, 9, 9, 9, 8, 8, 12, 11, 10, 10, 8, 7, 17, 14, 10, 9, 6, 3, 20, 18, 14, 13, 12, 8, 11, 11, 9, 8, 8, 7, 17, 15, 13, 12, 11, 10, 18, 15, 13, 10, 8, 8, 5, 4, 4, 3, 2, 2, 6, 6, 6, 6, 6, 6, 17, 14, 12, 9, 8, 6, 18, 16, 15, 15, 14, 13, 9, 8, 6, 6, 4, 4, 13, 12, 12, 12, 12, 12, 9, 9, 9, 8, 7, 7, 18, 17, 15, 15, 12, 12, 10, 9, 8, 7, 5, 5, 5, 5, 5, 4, 4, 4, 18, 18, 18, 18, 18, 18, 10, 8, 8, 7, 6, 6, 18, 16, 15, 11, 9, 9, 13, 13, 13, 13, 13, 13, 4, 4, 4, 4, 4, 4, 10, 9, 7, 6, 6, 5, 13, 11, 11, 9, 9, 7, 17, 15, 12, 11, 9, 6, 7, 5, 4, 4, 2, 1, 8, 7, 6, 6, 5, 5, 17, 14, 13, 13, 11, 10, 12, 12, 11, 11, 9, 9, 14, 13, 13, 12, 11, 10, 16, 15, 13, 13, 11, 11, 19, 16, 16, 15, 13, 12, 7, 7, 7, 7, 6, 6
 |17, 15, 14, 14, 13, 11, 16, 12, 10, 8, 7, 4, 10, 9, 7, 7, 5, 4, 14, 14, 14, 13, 13, 13, 16, 14, 12, 12, 10, 10, 14, 14, 14, 14, 14, 14, 11, 10, 10, 9, 8, 7, 17, 16, 16, 15, 15, 14, 18, 18, 18, 17, 17, 17, 3, 2, 2, 2, 1, 1, 18, 13, 12, 10, 7, 5, 14, 12, 11, 8, 5, 3, 18, 18, 16, 15, 14, 14, 11, 11, 10, 10, 10, 9, 8, 8, 7, 7, 5, 5, 10, 9, 9, 8, 7, 5, 19, 17, 12, 10, 9, 6, 10, 9, 8, 7, 4, 4, 15, 15, 15, 15, 15, 15, 18, 17, 15, 13, 13, 12, 18, 16, 15, 13, 9, 7, 16, 14, 11, 10, 9, 7, 6, 6, 5, 5, 5, 4, 13, 11, 9, 9, 7, 5, 18, 17, 17, 17, 17, 17, 9, 7, 7, 6, 5, 5, 18, 17, 17, 16, 15, 13, 19, 18, 18, 16, 15, 15, 17, 14, 14, 10, 10, 6, 18, 15, 13, 10, 9, 6, 7, 7, 6, 6, 5, 5, 15, 12, 11, 10, 7, 4, 20, 19, 19, 19, 18, 18, 14, 14, 13, 11, 10, 8, 3, 3, 3, 3, 3, 3, 20, 18, 17, 17, 15, 14, 17, 17, 14, 13, 9, 6, 16, 16, 15, 13, 12, 11, 18, 16, 14, 14, 12, 11, 6, 5, 5, 5, 5, 5, 16, 14, 10, 7, 3, 2, 20, 18, 18, 16, 15, 15, 16, 15, 15, 13, 13, 12, 12, 11, 8, 8, 7, 4, 17, 16, 12, 9, 7, 4, 17, 17, 15, 14, 14, 12, 5, 4, 3, 3, 2, 2, 18, 16, 14, 11, 10, 8, 5, 5, 5, 5, 5, 5, 18, 14, 12, 7, 3, 2
 |8, 8, 8, 8, 8, 8, 10, 8, 8, 7, 7, 6, 18, 17, 16, 15, 14, 13, 17, 13, 12, 8, 6, 6, 17, 16, 11, 7, 5, 3, 6, 5, 5, 5, 4, 4, 18, 17, 15, 14, 14, 13, 9, 8, 8, 8, 8, 8, 19, 16, 14, 13, 11, 7, 12, 10, 9, 9, 8, 7, 20, 17, 12, 8, 7, 3, 8, 8, 7, 6, 5, 5, 5, 5, 5, 4, 4, 3, 16, 15, 13, 11, 9, 7, 7, 5, 4, 3, 2, 2, 17, 16, 11, 9, 5, 1, 18, 17, 17, 16, 16, 16, 16, 16, 14, 13, 12, 12, 8, 7, 7, 7, 7, 7, 15, 14, 12, 10, 10, 8, 12, 12, 11, 8, 6, 5, 12, 12, 12, 12, 11, 11, 16, 14, 13, 10, 7, 6, 10, 9, 8, 8, 7, 5, 12, 10, 10, 9, 7, 6, 17, 17, 16, 16, 16, 15, 10, 9, 9, 8, 8, 7, 18, 16, 16, 15, 13, 13, 15, 14, 13, 12, 12, 10, 4, 3, 3, 2, 2, 1, 19, 18, 18, 18, 17, 17, 11, 9, 7, 7, 5, 5, 17, 15, 12, 10, 9, 7, 3, 3, 3, 2, 1, 1, 6, 6, 6, 6, 6, 6, 11, 11, 11, 10, 9, 9, 14, 14, 14, 14, 14, 14, 14, 14, 10, 9, 7, 5, 13, 11, 11, 11, 10, 9, 11, 10, 9, 7, 6, 6, 11, 10, 9, 9, 8, 8, 20, 18, 18, 17, 16, 15, 18, 18, 16, 16, 15, 14, 10, 10, 9, 7, 7, 5, 6, 5, 5, 4, 2, 1, 14, 11, 9, 9, 6, 6, 17, 14, 13, 11, 11, 10, 15, 15, 15, 14, 14, 13, 16, 15, 14, 14, 13, 13, 18, 13, 10, 9, 4, 2
 |10, 9, 8, 6, 5, 5, 10, 9, 8, 8, 7, 6, 11, 11, 11, 11, 10, 10, 12, 11, 11, 9, 8, 8, 18, 16, 13, 10, 8, 7, 10, 10, 10, 10, 10, 10, 12, 12, 11, 11, 11, 10, 14, 11, 10, 8, 7, 5, 11, 9, 6, 5, 3, 2, 14, 13, 9, 9, 6, 4, 10, 9, 7, 6, 5, 4, 15, 15, 14, 14, 13, 12, 16, 14, 12, 11, 7, 7, 15, 14, 12, 11, 10, 10, 13, 12, 11, 11, 9, 9, 10, 10, 10, 9, 8, 8, 9, 9, 8, 8, 8, 7, 7, 7, 7, 6, 5, 5, 10, 8, 7, 6, 4, 4, 16, 16, 10, 8, 6, 4, 17, 17, 13, 11, 9, 7, 16, 15, 15, 15, 14, 14, 7, 6, 6, 6, 6, 6, 19, 18, 18, 17, 16, 16, 8, 8, 8, 8, 8, 8, 4, 3, 2, 2, 2, 1, 16, 16, 14, 13, 11, 9, 11, 10, 9, 9, 9, 8, 7, 6, 6, 6, 4, 4, 19, 17, 17, 15, 15, 14, 15, 15, 12, 10, 9, 8, 14, 13, 13, 13, 13, 13, 13, 12, 12, 11, 11, 11, 17, 16, 13, 11, 11, 9, 4, 4, 3, 3, 3, 2, 17, 17, 17, 16, 16, 16, 13, 13, 13, 13, 13, 13, 16, 14, 13, 12, 11, 8, 12, 12, 12, 12, 12, 12, 10, 9, 8, 6, 6, 5, 19, 18, 17, 17, 16, 16, 7, 7, 6, 4, 4, 2, 19, 18, 18, 16, 15, 15, 18, 17, 17, 17, 17, 17, 11, 10, 9, 7, 6, 4, 17, 14, 14, 10, 8, 8, 15, 15, 13, 9, 8, 5, 3, 2, 2, 2, 2, 2, 15, 15, 14, 14, 14, 13, 14, 11, 10, 10, 8, 6
 |15, 14, 14, 13, 12, 11, 14, 14, 13, 11, 10, 10, 12, 11, 11, 10, 9, 8, 12, 12, 12, 12, 12, 12, 11, 11, 11, 11, 10, 10, 17, 16, 11, 10, 7, 6, 4, 3, 3, 3, 2, 2, 9, 9, 9, 9, 9, 9, 7, 6, 6, 5, 4, 2, 16, 16, 10, 7, 7, 3, 17, 14, 12, 12, 10, 7, 14, 13, 13, 12, 12, 11, 9, 8, 7, 4, 2, 2, 14, 14, 14, 14, 14, 14, 7, 5, 4, 3, 3, 2, 15, 12, 9, 8, 7, 4, 20, 18, 16, 14, 11, 9, 17, 16, 15, 12, 10, 9, 10, 7, 7, 4, 3, 1, 15, 14, 14, 13, 13, 13, 13, 11, 9, 7, 6, 5, 16, 15, 12, 10, 8, 6, 11, 10, 10, 10, 10, 10, 18, 15, 14, 11, 7, 5, 11, 11, 11, 11, 11, 11, 9, 9, 9, 9, 9, 9, 10, 9, 6, 6, 4, 3, 20, 19, 18, 18, 17, 17, 19, 19, 19, 19, 19, 19, 5, 5, 5, 5, 5, 5, 4, 3, 3, 2, 1, 1, 16, 15, 14, 13, 12, 11, 18, 17, 16, 15, 15, 14, 15, 13, 13, 8, 6, 4, 14, 13, 12, 9, 9, 6, 20, 18, 17, 15, 12, 11, 5, 4, 4, 3, 2, 2, 11, 10, 10, 9, 9, 8, 13, 11, 10, 8, 6, 4, 13, 11, 9, 8, 6, 5, 13, 13, 13, 13, 12, 12, 14, 13, 12, 12, 10, 10, 5, 5, 3, 3, 1, 1, 7, 5, 5, 4, 4, 3, 12, 11, 9, 6, 3, 3, 18, 15, 15, 12, 10, 7, 17, 17, 17, 16, 15, 15, 15, 11, 9, 6, 4, 3, 11, 10, 10, 9, 8, 8, 17, 13, 10, 10, 7, 4|];